#chkprim     0
prtnabla     2
iscf        -3

ecut        16
pawecutdg   34
#tolvrs     1.0d-8
tolwfr      1.0d-6
nstep       200
occopt      7
tsmear      0.04
diemac      3.8
nband       256
kptopt      1
ngkpt       4 4 4
nshiftk     1
shiftk
    0.5 0.5 0.5

acell 4.9134 4.9134 5.40520000 angstrom
rprim
  0.5 -0.8660254037844386 0.0
  0.5 0.8660254037844386 0.0
  0.0 0.0 1.0
  
natom       9
ntypat      2
znucl       14 8
typat       1 1 1 2 2 2 2 2 2
xangst
    1.154403e+00 -1.999485e+00 3.603467e+00
    1.154403e+00 1.999485e+00 1.801733e+00
    -2.308807e+00 -0.000000e+00 0.000000e+00
    1.675961e+00 -6.212489e-01 4.245244e+00
    -2.999631e-01 1.762049e+00 2.443511e+00
    -1.375998e+00 -1.140800e+00 6.417774e-01
    1.675961e+00 6.212489e-01 -4.245244e+00
    -1.375998e+00 1.140800e+00 -6.417774e-01
    -2.999631e-01 -1.762049e+00 -2.443511e+00